NAME : B-n38-k6
COMMENT : (Augerat et al, No of trucks: 6, Optimal value: 805)
TYPE : CVRP
DIMENSION : 38
EDGE_WEIGHT_TYPE : EUC_2D 
CAPACITY : 100
NODE_COORD_SECTION 
 1 64 75
 2 16 97
 3 2 79
 4 28 79
 5 16 3
 6 39 20
 7 35 65
 8 43 21
 9 44 0
 10 37 67
 11 17 100
 12 34 80
 13 45 7
 14 11 83
 15 35 88
 16 21 98
 17 41 72
 18 51 0
 19 17 9
 20 36 66
 21 20 105
 22 35 85
 23 37 75
 24 17 11
 25 46 6
 26 40 23
 27 43 73
 28 40 21
 29 29 85
 30 45 6
 31 0 24
 32 42 66
 33 30 81
 34 17 9
 35 46 4
 36 0 85
 37 51 2
 38 5 80
DEMAND_SECTION 
1 0 
2 18 
3 10 
4 16 
5 12 
6 21 
7 23 
8 15 
9 25 
10 3 
11 6 
12 7 
13 4 
14 20 
15 25 
16 20 
17 12 
18 3 
19 12 
20 14 
21 26 
22 9 
23 22 
24 20 
25 9 
26 13 
27 21 
28 10 
29 8 
30 5 
31 14 
32 7 
33 21 
34 20 
35 1 
36 21 
37 17 
38 2 
DEPOT_SECTION 
 1  
 -1  
EOF 
